minimize
obj: 1 x_1_ + 1 x_2_ + 1 x_3_ + 1 x_4_
subject to
c1_1: 1 t_1,1_ - 1 y_1,1_ <= 0
c2_1: 1 t_1,2_ - 1 y_1,1_ - 1 y_1,2_ <= 0
c3_1: 1 t_1,3_ - 1 y_1,2_ - 1 y_1,3_ <= 0
c4_1: 1 t_1,4_ - 1 y_1,3_ - 1 y_1,4_ <= 0
c5_1: 1 t_1,5_ - 1 y_1,4_ - 1 y_1,5_ <= 0
c6_1: 1 t_1,6_ - 1 y_1,5_ - 1 y_1,6_ <= 0
c7_1: 1 t_1,7_ - 1 y_1,6_ - 1 y_1,7_ <= 0
c8_1: 1 t_1,8_ - 1 y_1,7_ - 1 y_1,8_ <= 0
c9_1: 1 t_1,9_ - 1 y_1,8_ - 1 y_1,9_ <= 0
c10_1: 1 t_1,10_ - 1 y_1,9_ - 1 y_1,10_ <= 0
c11_1: 1 t_1,11_ - 1 y_1,10_ - 1 y_1,11_ <= 0
c12_1: 1 t_1,12_ - 1 y_1,11_ - 1 y_1,12_ <= 0
c13: 1 t_1,13_ - 1 y_1,12_ - 1 y_1,13_ <= 0
c14: 1 t_1,14_ - 1 y_1,13_ - 1 y_1,14_ <= 0
c15: 1 t_1,15_ - 1 y_1,14_ - 1 y_1,15_ <= 0
c16: 1 t_1,16_ - 1 y_1,15_ - 1 y_1,16_ <= 0
c17: 1 t_1,17_ - 1 y_1,16_ - 1 y_1,17_ <= 0
c18: 1 t_1,18_ - 1 y_1,17_ - 1 y_1,18_ <= 0
c19: 1 t_1,19_ - 1 y_1,18_ - 1 y_1,19_ <= 0
c20: 1 t_1,20_ - 1 y_1,19_ - 1 y_1,20_ <= 0
c21: 1 t_1,21_ - 1 y_1,20_ - 1 y_1,21_ <= 0
c22: 1 t_1,22_ - 1 y_1,21_ - 1 y_1,22_ <= 0
c23: 1 t_1,23_ - 1 y_1,22_ - 1 y_1,23_ <= 0
c24: 1 t_1,24_ - 1 y_1,23_ - 1 y_1,24_ <= 0
c25: 1 t_1,25_ - 1 y_1,24_ - 1 y_1,25_ <= 0
c26: 1 t_1,26_ - 1 y_1,25_ - 1 y_1,26_ <= 0
c27: 1 t_1,27_ - 1 y_1,26_ - 1 y_1,27_ <= 0
c28: 1 t_1,28_ - 1 y_1,27_ - 1 y_1,28_ <= 0
c29: 1 t_1,29_ - 1 y_1,28_ - 1 y_1,29_ <= 0
c30: 1 t_1,30_ - 1 y_1,29_ - 1 y_1,30_ <= 0
c31: 1 t_1,31_ - 1 y_1,30_ - 1 y_1,31_ <= 0
c32: 1 t_1,32_ - 1 y_1,31_ - 1 y_1,32_ <= 0
c33: 1 t_1,33_ - 1 y_1,32_ - 1 y_1,33_ <= 0
c34: 1 t_1,34_ - 1 y_1,33_ - 1 y_1,34_ <= 0
c35: 1 t_1,35_ - 1 y_1,34_ <= 0
c36: 1 t_2,1_ - 1 y_2,1_ <= 0
c37: 1 t_2,2_ - 1 y_2,1_ - 1 y_2,2_ <= 0
c38: 1 t_2,3_ - 1 y_2,2_ - 1 y_2,3_ <= 0
c39: 1 t_2,4_ - 1 y_2,3_ - 1 y_2,4_ <= 0
c40: 1 t_2,5_ - 1 y_2,4_ - 1 y_2,5_ <= 0
c41: 1 t_2,6_ - 1 y_2,5_ - 1 y_2,6_ <= 0
c42: 1 t_2,7_ - 1 y_2,6_ - 1 y_2,7_ <= 0
c43: 1 t_2,8_ - 1 y_2,7_ - 1 y_2,8_ <= 0
c44: 1 t_2,9_ - 1 y_2,8_ - 1 y_2,9_ <= 0
c45: 1 t_2,10_ - 1 y_2,9_ - 1 y_2,10_ <= 0
c46: 1 t_2,11_ - 1 y_2,10_ - 1 y_2,11_ <= 0
c47: 1 t_2,12_ - 1 y_2,11_ - 1 y_2,12_ <= 0
c48: 1 t_2,13_ - 1 y_2,12_ - 1 y_2,13_ <= 0
c49: 1 t_2,14_ - 1 y_2,13_ - 1 y_2,14_ <= 0
c50: 1 t_2,15_ - 1 y_2,14_ - 1 y_2,15_ <= 0
c51: 1 t_2,16_ - 1 y_2,15_ - 1 y_2,16_ <= 0
c52: 1 t_2,17_ - 1 y_2,16_ - 1 y_2,17_ <= 0
c53: 1 t_2,18_ - 1 y_2,17_ - 1 y_2,18_ <= 0
c54: 1 t_2,19_ - 1 y_2,18_ - 1 y_2,19_ <= 0
c55: 1 t_2,20_ - 1 y_2,19_ - 1 y_2,20_ <= 0
c56: 1 t_2,21_ - 1 y_2,20_ - 1 y_2,21_ <= 0
c57: 1 t_2,22_ - 1 y_2,21_ - 1 y_2,22_ <= 0
c58: 1 t_2,23_ - 1 y_2,22_ - 1 y_2,23_ <= 0
c59: 1 t_2,24_ - 1 y_2,23_ - 1 y_2,24_ <= 0
c60: 1 t_2,25_ - 1 y_2,24_ - 1 y_2,25_ <= 0
c61: 1 t_2,26_ - 1 y_2,25_ - 1 y_2,26_ <= 0
c62: 1 t_2,27_ - 1 y_2,26_ - 1 y_2,27_ <= 0
c63: 1 t_2,28_ - 1 y_2,27_ - 1 y_2,28_ <= 0
c64: 1 t_2,29_ - 1 y_2,28_ - 1 y_2,29_ <= 0
c65: 1 t_2,30_ - 1 y_2,29_ - 1 y_2,30_ <= 0
c66: 1 t_2,31_ - 1 y_2,30_ - 1 y_2,31_ <= 0
c67: 1 t_2,32_ - 1 y_2,31_ - 1 y_2,32_ <= 0
c68: 1 t_2,33_ - 1 y_2,32_ - 1 y_2,33_ <= 0
c69: 1 t_2,34_ - 1 y_2,33_ - 1 y_2,34_ <= 0
c70: 1 t_2,35_ - 1 y_2,34_ <= 0
c71: 1 t_3,1_ - 1 y_3,1_ <= 0
c72: 1 t_3,2_ - 1 y_3,1_ - 1 y_3,2_ <= 0
c73: 1 t_3,3_ - 1 y_3,2_ - 1 y_3,3_ <= 0
c74: 1 t_3,4_ - 1 y_3,3_ - 1 y_3,4_ <= 0
c75: 1 t_3,5_ - 1 y_3,4_ - 1 y_3,5_ <= 0
c76: 1 t_3,6_ - 1 y_3,5_ - 1 y_3,6_ <= 0
c77: 1 t_3,7_ - 1 y_3,6_ - 1 y_3,7_ <= 0
c78: 1 t_3,8_ - 1 y_3,7_ - 1 y_3,8_ <= 0
c79: 1 t_3,9_ - 1 y_3,8_ - 1 y_3,9_ <= 0
c80: 1 t_3,10_ - 1 y_3,9_ - 1 y_3,10_ <= 0
c81: 1 t_3,11_ - 1 y_3,10_ - 1 y_3,11_ <= 0
c82: 1 t_3,12_ - 1 y_3,11_ - 1 y_3,12_ <= 0
c83: 1 t_3,13_ - 1 y_3,12_ - 1 y_3,13_ <= 0
c84: 1 t_3,14_ - 1 y_3,13_ - 1 y_3,14_ <= 0
c85: 1 t_3,15_ - 1 y_3,14_ - 1 y_3,15_ <= 0
c86: 1 t_3,16_ - 1 y_3,15_ - 1 y_3,16_ <= 0
c87: 1 t_3,17_ - 1 y_3,16_ - 1 y_3,17_ <= 0
c88: 1 t_3,18_ - 1 y_3,17_ - 1 y_3,18_ <= 0
c89: 1 t_3,19_ - 1 y_3,18_ - 1 y_3,19_ <= 0
c90: 1 t_3,20_ - 1 y_3,19_ - 1 y_3,20_ <= 0
c91: 1 t_3,21_ - 1 y_3,20_ - 1 y_3,21_ <= 0
c92: 1 t_3,22_ - 1 y_3,21_ - 1 y_3,22_ <= 0
c93: 1 t_3,23_ - 1 y_3,22_ - 1 y_3,23_ <= 0
c94: 1 t_3,24_ - 1 y_3,23_ - 1 y_3,24_ <= 0
c95: 1 t_3,25_ - 1 y_3,24_ - 1 y_3,25_ <= 0
c96: 1 t_3,26_ - 1 y_3,25_ - 1 y_3,26_ <= 0
c97: 1 t_3,27_ - 1 y_3,26_ - 1 y_3,27_ <= 0
c98: 1 t_3,28_ - 1 y_3,27_ - 1 y_3,28_ <= 0
c99: 1 t_3,29_ - 1 y_3,28_ - 1 y_3,29_ <= 0
c100: 1 t_3,30_ - 1 y_3,29_ - 1 y_3,30_ <= 0
c101: 1 t_3,31_ - 1 y_3,30_ - 1 y_3,31_ <= 0
c102: 1 t_3,32_ - 1 y_3,31_ - 1 y_3,32_ <= 0
c103: 1 t_3,33_ - 1 y_3,32_ - 1 y_3,33_ <= 0
c104: 1 t_3,34_ - 1 y_3,33_ - 1 y_3,34_ <= 0
c105: 1 t_3,35_ - 1 y_3,34_ <= 0
c106: 1 t_4,1_ - 1 y_4,1_ <= 0
c107: 1 t_4,2_ - 1 y_4,1_ - 1 y_4,2_ <= 0
c108: 1 t_4,3_ - 1 y_4,2_ - 1 y_4,3_ <= 0
c109: 1 t_4,4_ - 1 y_4,3_ - 1 y_4,4_ <= 0
c110: 1 t_4,5_ - 1 y_4,4_ - 1 y_4,5_ <= 0
c111: 1 t_4,6_ - 1 y_4,5_ - 1 y_4,6_ <= 0
c112: 1 t_4,7_ - 1 y_4,6_ - 1 y_4,7_ <= 0
c113: 1 t_4,8_ - 1 y_4,7_ - 1 y_4,8_ <= 0
c114: 1 t_4,9_ - 1 y_4,8_ - 1 y_4,9_ <= 0
c115: 1 t_4,10_ - 1 y_4,9_ - 1 y_4,10_ <= 0
c116: 1 t_4,11_ - 1 y_4,10_ - 1 y_4,11_ <= 0
c117: 1 t_4,12_ - 1 y_4,11_ - 1 y_4,12_ <= 0
c118: 1 t_4,13_ - 1 y_4,12_ - 1 y_4,13_ <= 0
c119: 1 t_4,14_ - 1 y_4,13_ - 1 y_4,14_ <= 0
c120: 1 t_4,15_ - 1 y_4,14_ - 1 y_4,15_ <= 0
c121: 1 t_4,16_ - 1 y_4,15_ - 1 y_4,16_ <= 0
c122: 1 t_4,17_ - 1 y_4,16_ - 1 y_4,17_ <= 0
c123: 1 t_4,18_ - 1 y_4,17_ - 1 y_4,18_ <= 0
c124: 1 t_4,19_ - 1 y_4,18_ - 1 y_4,19_ <= 0
c125: 1 t_4,20_ - 1 y_4,19_ - 1 y_4,20_ <= 0
c126: 1 t_4,21_ - 1 y_4,20_ - 1 y_4,21_ <= 0
c127: 1 t_4,22_ - 1 y_4,21_ - 1 y_4,22_ <= 0
c128: 1 t_4,23_ - 1 y_4,22_ - 1 y_4,23_ <= 0
c129: 1 t_4,24_ - 1 y_4,23_ - 1 y_4,24_ <= 0
c130: 1 t_4,25_ - 1 y_4,24_ - 1 y_4,25_ <= 0
c131: 1 t_4,26_ - 1 y_4,25_ - 1 y_4,26_ <= 0
c132: 1 t_4,27_ - 1 y_4,26_ - 1 y_4,27_ <= 0
c133: 1 t_4,28_ - 1 y_4,27_ - 1 y_4,28_ <= 0
c134: 1 t_4,29_ - 1 y_4,28_ - 1 y_4,29_ <= 0
c135: 1 t_4,30_ - 1 y_4,29_ - 1 y_4,30_ <= 0
c136: 1 t_4,31_ - 1 y_4,30_ - 1 y_4,31_ <= 0
c137: 1 t_4,32_ - 1 y_4,31_ - 1 y_4,32_ <= 0
c138: 1 t_4,33_ - 1 y_4,32_ - 1 y_4,33_ <= 0
c139: 1 t_4,34_ - 1 y_4,33_ - 1 y_4,34_ <= 0
c140: 1 t_4,35_ - 1 y_4,34_ <= 0
c141: 4 t_1,1_ + 4 t_2,1_ + 4 t_3,1_ + 4 t_4,1_ + 3.5432525951557095 t_1,2_ + 3.5432525951557095 t_2,2_ + 3.5432525951557095 t_3,2_ + 3.5432525951557095 t_4,2_ + 3.1141868512110724 t_1,3_ + 3.1141868512110724 t_2,3_ + 3.1141868512110724 t_3,3_ + 3.1141868512110724 t_4,3_ + 2.71280276816609 t_1,4_ + 2.71280276816609 t_2,4_ + 2.71280276816609 t_3,4_ + 2.71280276816609 t_4,4_ + 2.339100346020761 t_1,5_ + 2.339100346020761 t_2,5_ + 2.339100346020761 t_3,5_ + 2.339100346020761 t_4,5_ + 1.9930795847750862 t_1,6_ + 1.9930795847750862 t_2,6_ + 1.9930795847750862 t_3,6_ + 1.9930795847750862 t_4,6_ + 1.6747404844290654 t_1,7_ + 1.6747404844290654 t_2,7_ + 1.6747404844290654 t_3,7_ + 1.6747404844290654 t_4,7_ + 1.3840830449826995 t_1,8_ + 1.3840830449826995 t_2,8_ + 1.3840830449826995 t_3,8_ + 1.3840830449826995 t_4,8_ + 1.1211072664359858 t_1,9_ + 1.1211072664359858 t_2,9_ + 1.1211072664359858 t_3,9_ + 1.1211072664359858 t_4,9_ + 0.8858131487889275 t_1,10_ + 0.8858131487889275 t_2,10_ + 0.8858131487889275 t_3,10_ + 0.8858131487889275 t_4,10_ + 0.6782006920415222 t_1,11_ + 0.6782006920415222 t_2,11_ + 0.6782006920415222 t_3,11_ + 0.6782006920415222 t_4,11_ + 0.4982698961937717 t_1,12_ + 0.4982698961937717 t_2,12_ + 0.4982698961937717 t_3,12_ + 0.4982698961937717 t_4,12_ + 0.3460207612456745 t_1,13_ + 0.3460207612456745 t_2,13_ + 0.3460207612456745 t_3,13_ + 0.3460207612456745 t_4,13_ + 0.22145328719723192 t_1,14_ + 0.22145328719723192 t_2,14_ + 0.22145328719723192 t_3,14_ + 0.22145328719723192 t_4,14_ + 0.12456747404844296 t_1,15_ + 0.12456747404844296 t_2,15_ + 0.12456747404844296 t_3,15_ + 0.12456747404844296 t_4,15_ + 0.05536332179930798 t_1,16_ + 0.05536332179930798 t_2,16_ + 0.05536332179930798 t_3,16_ + 0.05536332179930798 t_4,16_ + 0.013840830449826995 t_1,17_ + 0.013840830449826995 t_2,17_ + 0.013840830449826995 t_3,17_ + 0.013840830449826995 t_4,17_ + 0.013840830449826995 t_1,19_ + 0.013840830449826995 t_2,19_ + 0.013840830449826995 t_3,19_ + 0.013840830449826995 t_4,19_ + 0.05536332179930798 t_1,20_ + 0.05536332179930798 t_2,20_ + 0.05536332179930798 t_3,20_ + 0.05536332179930798 t_4,20_ + 0.12456747404844296 t_1,21_ + 0.12456747404844296 t_2,21_ + 0.12456747404844296 t_3,21_ + 0.12456747404844296 t_4,21_ + 0.22145328719723192 t_1,22_ + 0.22145328719723192 t_2,22_ + 0.22145328719723192 t_3,22_ + 0.22145328719723192 t_4,22_ + 0.3460207612456749 t_1,23_ + 0.3460207612456749 t_2,23_ + 0.3460207612456749 t_3,23_ + 0.3460207612456749 t_4,23_ + 0.4982698961937718 t_1,24_ + 0.4982698961937718 t_2,24_ + 0.4982698961937718 t_3,24_ + 0.4982698961937718 t_4,24_ + 0.6782006920415228 t_1,25_ + 0.6782006920415228 t_2,25_ + 0.6782006920415228 t_3,25_ + 0.6782006920415228 t_4,25_ + 0.8858131487889277 t_1,26_ + 0.8858131487889277 t_2,26_ + 0.8858131487889277 t_3,26_ + 0.8858131487889277 t_4,26_ + 1.1211072664359858 t_1,27_ + 1.1211072664359858 t_2,27_ + 1.1211072664359858 t_3,27_ + 1.1211072664359858 t_4,27_ + 1.3840830449826986 t_1,28_ + 1.3840830449826986 t_2,28_ + 1.3840830449826986 t_3,28_ + 1.3840830449826986 t_4,28_ + 1.6747404844290654 t_1,29_ + 1.6747404844290654 t_2,29_ + 1.6747404844290654 t_3,29_ + 1.6747404844290654 t_4,29_ + 1.9930795847750862 t_1,30_ + 1.9930795847750862 t_2,30_ + 1.9930795847750862 t_3,30_ + 1.9930795847750862 t_4,30_ + 2.339100346020761 t_1,31_ + 2.339100346020761 t_2,31_ + 2.339100346020761 t_3,31_ + 2.339100346020761 t_4,31_ + 2.71280276816609 t_1,32_ + 2.71280276816609 t_2,32_ + 2.71280276816609 t_3,32_ + 2.71280276816609 t_4,32_ + 3.1141868512110724 t_1,33_ + 3.1141868512110724 t_2,33_ + 3.1141868512110724 t_3,33_ + 3.1141868512110724 t_4,33_ + 3.5432525951557095 t_1,34_ + 3.5432525951557095 t_2,34_ + 3.5432525951557095 t_3,34_ + 3.5432525951557095 t_4,34_ + 4 t_1,35_ + 4 t_2,35_ + 4 t_3,35_ + 4 t_4,35_ <= 1
c1: 1 y_1,1_ + 1 y_1,2_ + 1 y_1,3_ + 1 y_1,4_ + 1 y_1,5_ + 1 y_1,6_ + 1 y_1,7_ + 1 y_1,8_ + 1 y_1,9_ + 1 y_1,10_ + 1 y_1,11_ + 1 y_1,12_ + 1 y_1,13_ + 1 y_1,14_ + 1 y_1,15_ + 1 y_1,16_ + 1 y_1,17_ + 1 y_1,18_ + 1 y_1,19_ + 1 y_1,20_ + 1 y_1,21_ + 1 y_1,22_ + 1 y_1,23_ + 1 y_1,24_ + 1 y_1,25_ + 1 y_1,26_ + 1 y_1,27_ + 1 y_1,28_ + 1 y_1,29_ + 1 y_1,30_ + 1 y_1,31_ + 1 y_1,32_ + 1 y_1,33_ + 1 y_1,34_ = 1
c2: 1 t_1,1_ + 1 t_1,2_ + 1 t_1,3_ + 1 t_1,4_ + 1 t_1,5_ + 1 t_1,6_ + 1 t_1,7_ + 1 t_1,8_ + 1 t_1,9_ + 1 t_1,10_ + 1 t_1,11_ + 1 t_1,12_ + 1 t_1,13_ + 1 t_1,14_ + 1 t_1,15_ + 1 t_1,16_ + 1 t_1,17_ + 1 t_1,18_ + 1 t_1,19_ + 1 t_1,20_ + 1 t_1,21_ + 1 t_1,22_ + 1 t_1,23_ + 1 t_1,24_ + 1 t_1,25_ + 1 t_1,26_ + 1 t_1,27_ + 1 t_1,28_ + 1 t_1,29_ + 1 t_1,30_ + 1 t_1,31_ + 1 t_1,32_ + 1 t_1,33_ + 1 t_1,34_ + 1 t_1,35_ = 1
c3: -2 t_1,1_ - 1.8823529411764706 t_1,2_ - 1.7647058823529411 t_1,3_ - 1.6470588235294117 t_1,4_ - 1.5294117647058822 t_1,5_ - 1.4117647058823528 t_1,6_ - 1.2941176470588234 t_1,7_ - 1.1764705882352944 t_1,8_ - 1.0588235294117645 t_1,9_ - 0.9411764705882354 t_1,10_ - 0.8235294117647057 t_1,11_ - 0.7058823529411765 t_1,12_ - 0.5882352941176469 t_1,13_ - 0.47058823529411775 t_1,14_ - 0.3529411764705883 t_1,15_ - 0.23529411764705888 t_1,16_ - 0.11764705882352944 t_1,17_ + 0.11764705882352944 t_1,19_ + 0.23529411764705888 t_1,20_ + 0.3529411764705883 t_1,21_ + 0.47058823529411775 t_1,22_ + 0.5882352941176472 t_1,23_ + 0.7058823529411766 t_1,24_ + 0.8235294117647061 t_1,25_ + 0.9411764705882355 t_1,26_ + 1.0588235294117645 t_1,27_ + 1.176470588235294 t_1,28_ + 1.2941176470588234 t_1,29_ + 1.4117647058823528 t_1,30_ + 1.5294117647058822 t_1,31_ + 1.6470588235294117 t_1,32_ + 1.7647058823529411 t_1,33_ + 1.8823529411764706 t_1,34_ + 2 t_1,35_ - 1 x_1_ = 0
c4: 1 y_2,1_ + 1 y_2,2_ + 1 y_2,3_ + 1 y_2,4_ + 1 y_2,5_ + 1 y_2,6_ + 1 y_2,7_ + 1 y_2,8_ + 1 y_2,9_ + 1 y_2,10_ + 1 y_2,11_ + 1 y_2,12_ + 1 y_2,13_ + 1 y_2,14_ + 1 y_2,15_ + 1 y_2,16_ + 1 y_2,17_ + 1 y_2,18_ + 1 y_2,19_ + 1 y_2,20_ + 1 y_2,21_ + 1 y_2,22_ + 1 y_2,23_ + 1 y_2,24_ + 1 y_2,25_ + 1 y_2,26_ + 1 y_2,27_ + 1 y_2,28_ + 1 y_2,29_ + 1 y_2,30_ + 1 y_2,31_ + 1 y_2,32_ + 1 y_2,33_ + 1 y_2,34_ = 1
c5: 1 t_2,1_ + 1 t_2,2_ + 1 t_2,3_ + 1 t_2,4_ + 1 t_2,5_ + 1 t_2,6_ + 1 t_2,7_ + 1 t_2,8_ + 1 t_2,9_ + 1 t_2,10_ + 1 t_2,11_ + 1 t_2,12_ + 1 t_2,13_ + 1 t_2,14_ + 1 t_2,15_ + 1 t_2,16_ + 1 t_2,17_ + 1 t_2,18_ + 1 t_2,19_ + 1 t_2,20_ + 1 t_2,21_ + 1 t_2,22_ + 1 t_2,23_ + 1 t_2,24_ + 1 t_2,25_ + 1 t_2,26_ + 1 t_2,27_ + 1 t_2,28_ + 1 t_2,29_ + 1 t_2,30_ + 1 t_2,31_ + 1 t_2,32_ + 1 t_2,33_ + 1 t_2,34_ + 1 t_2,35_ = 1
c6: -2 t_2,1_ - 1.8823529411764706 t_2,2_ - 1.7647058823529411 t_2,3_ - 1.6470588235294117 t_2,4_ - 1.5294117647058822 t_2,5_ - 1.4117647058823528 t_2,6_ - 1.2941176470588234 t_2,7_ - 1.1764705882352944 t_2,8_ - 1.0588235294117645 t_2,9_ - 0.9411764705882354 t_2,10_ - 0.8235294117647057 t_2,11_ - 0.7058823529411765 t_2,12_ - 0.5882352941176469 t_2,13_ - 0.47058823529411775 t_2,14_ - 0.3529411764705883 t_2,15_ - 0.23529411764705888 t_2,16_ - 0.11764705882352944 t_2,17_ + 0.11764705882352944 t_2,19_ + 0.23529411764705888 t_2,20_ + 0.3529411764705883 t_2,21_ + 0.47058823529411775 t_2,22_ + 0.5882352941176472 t_2,23_ + 0.7058823529411766 t_2,24_ + 0.8235294117647061 t_2,25_ + 0.9411764705882355 t_2,26_ + 1.0588235294117645 t_2,27_ + 1.176470588235294 t_2,28_ + 1.2941176470588234 t_2,29_ + 1.4117647058823528 t_2,30_ + 1.5294117647058822 t_2,31_ + 1.6470588235294117 t_2,32_ + 1.7647058823529411 t_2,33_ + 1.8823529411764706 t_2,34_ + 2 t_2,35_ - 1 x_2_ = 0
c7: 1 y_3,1_ + 1 y_3,2_ + 1 y_3,3_ + 1 y_3,4_ + 1 y_3,5_ + 1 y_3,6_ + 1 y_3,7_ + 1 y_3,8_ + 1 y_3,9_ + 1 y_3,10_ + 1 y_3,11_ + 1 y_3,12_ + 1 y_3,13_ + 1 y_3,14_ + 1 y_3,15_ + 1 y_3,16_ + 1 y_3,17_ + 1 y_3,18_ + 1 y_3,19_ + 1 y_3,20_ + 1 y_3,21_ + 1 y_3,22_ + 1 y_3,23_ + 1 y_3,24_ + 1 y_3,25_ + 1 y_3,26_ + 1 y_3,27_ + 1 y_3,28_ + 1 y_3,29_ + 1 y_3,30_ + 1 y_3,31_ + 1 y_3,32_ + 1 y_3,33_ + 1 y_3,34_ = 1
c8: 1 t_3,1_ + 1 t_3,2_ + 1 t_3,3_ + 1 t_3,4_ + 1 t_3,5_ + 1 t_3,6_ + 1 t_3,7_ + 1 t_3,8_ + 1 t_3,9_ + 1 t_3,10_ + 1 t_3,11_ + 1 t_3,12_ + 1 t_3,13_ + 1 t_3,14_ + 1 t_3,15_ + 1 t_3,16_ + 1 t_3,17_ + 1 t_3,18_ + 1 t_3,19_ + 1 t_3,20_ + 1 t_3,21_ + 1 t_3,22_ + 1 t_3,23_ + 1 t_3,24_ + 1 t_3,25_ + 1 t_3,26_ + 1 t_3,27_ + 1 t_3,28_ + 1 t_3,29_ + 1 t_3,30_ + 1 t_3,31_ + 1 t_3,32_ + 1 t_3,33_ + 1 t_3,34_ + 1 t_3,35_ = 1
c9: -2 t_3,1_ - 1.8823529411764706 t_3,2_ - 1.7647058823529411 t_3,3_ - 1.6470588235294117 t_3,4_ - 1.5294117647058822 t_3,5_ - 1.4117647058823528 t_3,6_ - 1.2941176470588234 t_3,7_ - 1.1764705882352944 t_3,8_ - 1.0588235294117645 t_3,9_ - 0.9411764705882354 t_3,10_ - 0.8235294117647057 t_3,11_ - 0.7058823529411765 t_3,12_ - 0.5882352941176469 t_3,13_ - 0.47058823529411775 t_3,14_ - 0.3529411764705883 t_3,15_ - 0.23529411764705888 t_3,16_ - 0.11764705882352944 t_3,17_ + 0.11764705882352944 t_3,19_ + 0.23529411764705888 t_3,20_ + 0.3529411764705883 t_3,21_ + 0.47058823529411775 t_3,22_ + 0.5882352941176472 t_3,23_ + 0.7058823529411766 t_3,24_ + 0.8235294117647061 t_3,25_ + 0.9411764705882355 t_3,26_ + 1.0588235294117645 t_3,27_ + 1.176470588235294 t_3,28_ + 1.2941176470588234 t_3,29_ + 1.4117647058823528 t_3,30_ + 1.5294117647058822 t_3,31_ + 1.6470588235294117 t_3,32_ + 1.7647058823529411 t_3,33_ + 1.8823529411764706 t_3,34_ + 2 t_3,35_ - 1 x_3_ = 0
c10: 1 y_4,1_ + 1 y_4,2_ + 1 y_4,3_ + 1 y_4,4_ + 1 y_4,5_ + 1 y_4,6_ + 1 y_4,7_ + 1 y_4,8_ + 1 y_4,9_ + 1 y_4,10_ + 1 y_4,11_ + 1 y_4,12_ + 1 y_4,13_ + 1 y_4,14_ + 1 y_4,15_ + 1 y_4,16_ + 1 y_4,17_ + 1 y_4,18_ + 1 y_4,19_ + 1 y_4,20_ + 1 y_4,21_ + 1 y_4,22_ + 1 y_4,23_ + 1 y_4,24_ + 1 y_4,25_ + 1 y_4,26_ + 1 y_4,27_ + 1 y_4,28_ + 1 y_4,29_ + 1 y_4,30_ + 1 y_4,31_ + 1 y_4,32_ + 1 y_4,33_ + 1 y_4,34_ = 1
c11: 1 t_4,1_ + 1 t_4,2_ + 1 t_4,3_ + 1 t_4,4_ + 1 t_4,5_ + 1 t_4,6_ + 1 t_4,7_ + 1 t_4,8_ + 1 t_4,9_ + 1 t_4,10_ + 1 t_4,11_ + 1 t_4,12_ + 1 t_4,13_ + 1 t_4,14_ + 1 t_4,15_ + 1 t_4,16_ + 1 t_4,17_ + 1 t_4,18_ + 1 t_4,19_ + 1 t_4,20_ + 1 t_4,21_ + 1 t_4,22_ + 1 t_4,23_ + 1 t_4,24_ + 1 t_4,25_ + 1 t_4,26_ + 1 t_4,27_ + 1 t_4,28_ + 1 t_4,29_ + 1 t_4,30_ + 1 t_4,31_ + 1 t_4,32_ + 1 t_4,33_ + 1 t_4,34_ + 1 t_4,35_ = 1
c12: -2 t_4,1_ - 1.8823529411764706 t_4,2_ - 1.7647058823529411 t_4,3_ - 1.6470588235294117 t_4,4_ - 1.5294117647058822 t_4,5_ - 1.4117647058823528 t_4,6_ - 1.2941176470588234 t_4,7_ - 1.1764705882352944 t_4,8_ - 1.0588235294117645 t_4,9_ - 0.9411764705882354 t_4,10_ - 0.8235294117647057 t_4,11_ - 0.7058823529411765 t_4,12_ - 0.5882352941176469 t_4,13_ - 0.47058823529411775 t_4,14_ - 0.3529411764705883 t_4,15_ - 0.23529411764705888 t_4,16_ - 0.11764705882352944 t_4,17_ + 0.11764705882352944 t_4,19_ + 0.23529411764705888 t_4,20_ + 0.3529411764705883 t_4,21_ + 0.47058823529411775 t_4,22_ + 0.5882352941176472 t_4,23_ + 0.7058823529411766 t_4,24_ + 0.8235294117647061 t_4,25_ + 0.9411764705882355 t_4,26_ + 1.0588235294117645 t_4,27_ + 1.176470588235294 t_4,28_ + 1.2941176470588234 t_4,29_ + 1.4117647058823528 t_4,30_ + 1.5294117647058822 t_4,31_ + 1.6470588235294117 t_4,32_ + 1.7647058823529411 t_4,33_ + 1.8823529411764706 t_4,34_ + 2 t_4,35_ - 1 x_4_ = 0
Bounds
x_1_ <= 2
x_2_ <= 2
x_3_ <= 2
x_4_ <= 2
t_1,1_ >= 0
t_2,1_ >= 0
t_3,1_ >= 0
t_4,1_ >= 0
t_1,2_ >= 0
t_2,2_ >= 0
t_3,2_ >= 0
t_4,2_ >= 0
t_1,3_ >= 0
t_2,3_ >= 0
t_3,3_ >= 0
t_4,3_ >= 0
t_1,4_ >= 0
t_2,4_ >= 0
t_3,4_ >= 0
t_4,4_ >= 0
t_1,5_ >= 0
t_2,5_ >= 0
t_3,5_ >= 0
t_4,5_ >= 0
t_1,6_ >= 0
t_2,6_ >= 0
t_3,6_ >= 0
t_4,6_ >= 0
t_1,7_ >= 0
t_2,7_ >= 0
t_3,7_ >= 0
t_4,7_ >= 0
t_1,8_ >= 0
t_2,8_ >= 0
t_3,8_ >= 0
t_4,8_ >= 0
t_1,9_ >= 0
t_2,9_ >= 0
t_3,9_ >= 0
t_4,9_ >= 0
t_1,10_ >= 0
t_2,10_ >= 0
t_3,10_ >= 0
t_4,10_ >= 0
t_1,11_ >= 0
t_2,11_ >= 0
t_3,11_ >= 0
t_4,11_ >= 0
t_1,12_ >= 0
t_2,12_ >= 0
t_3,12_ >= 0
t_4,12_ >= 0
t_1,13_ >= 0
t_2,13_ >= 0
t_3,13_ >= 0
t_4,13_ >= 0
t_1,14_ >= 0
t_2,14_ >= 0
t_3,14_ >= 0
t_4,14_ >= 0
t_1,15_ >= 0
t_2,15_ >= 0
t_3,15_ >= 0
t_4,15_ >= 0
t_1,16_ >= 0
t_2,16_ >= 0
t_3,16_ >= 0
t_4,16_ >= 0
t_1,17_ >= 0
t_2,17_ >= 0
t_3,17_ >= 0
t_4,17_ >= 0
t_1,18_ >= 0
t_2,18_ >= 0
t_3,18_ >= 0
t_4,18_ >= 0
t_1,19_ >= 0
t_2,19_ >= 0
t_3,19_ >= 0
t_4,19_ >= 0
t_1,20_ >= 0
t_2,20_ >= 0
t_3,20_ >= 0
t_4,20_ >= 0
t_1,21_ >= 0
t_2,21_ >= 0
t_3,21_ >= 0
t_4,21_ >= 0
t_1,22_ >= 0
t_2,22_ >= 0
t_3,22_ >= 0
t_4,22_ >= 0
t_1,23_ >= 0
t_2,23_ >= 0
t_3,23_ >= 0
t_4,23_ >= 0
t_1,24_ >= 0
t_2,24_ >= 0
t_3,24_ >= 0
t_4,24_ >= 0
t_1,25_ >= 0
t_2,25_ >= 0
t_3,25_ >= 0
t_4,25_ >= 0
t_1,26_ >= 0
t_2,26_ >= 0
t_3,26_ >= 0
t_4,26_ >= 0
t_1,27_ >= 0
t_2,27_ >= 0
t_3,27_ >= 0
t_4,27_ >= 0
t_1,28_ >= 0
t_2,28_ >= 0
t_3,28_ >= 0
t_4,28_ >= 0
t_1,29_ >= 0
t_2,29_ >= 0
t_3,29_ >= 0
t_4,29_ >= 0
t_1,30_ >= 0
t_2,30_ >= 0
t_3,30_ >= 0
t_4,30_ >= 0
t_1,31_ >= 0
t_2,31_ >= 0
t_3,31_ >= 0
t_4,31_ >= 0
t_1,32_ >= 0
t_2,32_ >= 0
t_3,32_ >= 0
t_4,32_ >= 0
t_1,33_ >= 0
t_2,33_ >= 0
t_3,33_ >= 0
t_4,33_ >= 0
t_1,34_ >= 0
t_2,34_ >= 0
t_3,34_ >= 0
t_4,34_ >= 0
t_1,35_ >= 0
t_2,35_ >= 0
t_3,35_ >= 0
t_4,35_ >= 0
x_1_ >= -2
x_2_ >= -2
x_3_ >= -2
x_4_ >= -2
Binary
y_1,1_
y_2,1_
y_3,1_
y_4,1_
y_1,2_
y_2,2_
y_3,2_
y_4,2_
y_1,3_
y_2,3_
y_3,3_
y_4,3_
y_1,4_
y_2,4_
y_3,4_
y_4,4_
y_1,5_
y_2,5_
y_3,5_
y_4,5_
y_1,6_
y_2,6_
y_3,6_
y_4,6_
y_1,7_
y_2,7_
y_3,7_
y_4,7_
y_1,8_
y_2,8_
y_3,8_
y_4,8_
y_1,9_
y_2,9_
y_3,9_
y_4,9_
y_1,10_
y_2,10_
y_3,10_
y_4,10_
y_1,11_
y_2,11_
y_3,11_
y_4,11_
y_1,12_
y_2,12_
y_3,12_
y_4,12_
y_1,13_
y_2,13_
y_3,13_
y_4,13_
y_1,14_
y_2,14_
y_3,14_
y_4,14_
y_1,15_
y_2,15_
y_3,15_
y_4,15_
y_1,16_
y_2,16_
y_3,16_
y_4,16_
y_1,17_
y_2,17_
y_3,17_
y_4,17_
y_1,18_
y_2,18_
y_3,18_
y_4,18_
y_1,19_
y_2,19_
y_3,19_
y_4,19_
y_1,20_
y_2,20_
y_3,20_
y_4,20_
y_1,21_
y_2,21_
y_3,21_
y_4,21_
y_1,22_
y_2,22_
y_3,22_
y_4,22_
y_1,23_
y_2,23_
y_3,23_
y_4,23_
y_1,24_
y_2,24_
y_3,24_
y_4,24_
y_1,25_
y_2,25_
y_3,25_
y_4,25_
y_1,26_
y_2,26_
y_3,26_
y_4,26_
y_1,27_
y_2,27_
y_3,27_
y_4,27_
y_1,28_
y_2,28_
y_3,28_
y_4,28_
y_1,29_
y_2,29_
y_3,29_
y_4,29_
y_1,30_
y_2,30_
y_3,30_
y_4,30_
y_1,31_
y_2,31_
y_3,31_
y_4,31_
y_1,32_
y_2,32_
y_3,32_
y_4,32_
y_1,33_
y_2,33_
y_3,33_
y_4,33_
y_1,34_
y_2,34_
y_3,34_
y_4,34_
End
